<?xml version="1.0" encoding="UTF-8"?><osil xmlns="os.optimizationservices.org" xmlns:xsi="http://www.w3.org/2001/XMLSchema-instance" xsi:schemaLocation="os.optimizationservices.org http://www.optimizationservices.org/schemas/2.0/OSiL.xsd"><instanceHeader><name>ex14_1_3</name></instanceHeader><instanceData><variables numberOfVariables="3"><var name="x1" lb="5.49e-6" ub="4.553"/><var name="x2" lb="2.1961e-3" ub="18.21"/><var name="x3" lb="-INF"/></variables><objectives><obj maxOrMin="min" name="defObj_objvar" numberOfObjCoef="1"><coef idx="2">1</coef></obj></objectives><constraints numberOfConstraints="4"><con name="e2" ub="1"/><con name="e3" ub="-1"/><con name="e4" ub="1.001"/><con name="e5" ub="-1.001"/></constraints><linearConstraintCoefficients numberOfValues="4"><start><el mult="5" incr="1">0</el></start><colIdx><el mult="4">2</el></colIdx><value><el mult="4">-1</el></value></linearConstraintCoefficients><quadraticCoefficients numberOfQuadraticTerms="2"><qTerm idx="0" idxOne="0" idxTwo="1" coef="1e4"/><qTerm idx="1" idxOne="0" idxTwo="1" coef="-1e4"/></quadraticCoefficients><nonlinearExpressions numberOfNonlinearExpressions="2"><nl idx="2"><sum><exp><variable idx="0" coef="-1"/></exp><exp><variable idx="1" coef="-1"/></exp></sum></nl><nl idx="3"><sum><negate><exp><variable idx="0" coef="-1"/></exp></negate><negate><exp><variable idx="1" coef="-1"/></exp></negate></sum></nl></nonlinearExpressions></instanceData></osil>